examples/data/sdpa-problem.dat-s
"GRET-SDP: mDim=d*(d+1)/2*M, nBlock = 1, {-d*M,...,-d*M}"
30			= nDim
1			= nBlocks
15			= bLOCKsTRCTUT
1 0 0 1 0 1 1 0 0 1 0 1 1 0 0 1 0 1 1 0 0 1 0 1 1 0 0 1 0 1
0 1 1 1 -1553.390000
0 1 1 2 -850.498000
0 1 1 3 -1545.460000
0 1 1 4 -376.963000
0 1 1 5 153.114000
0 1 1 6 -67.797100
0 1 1 7 593.555000
0 1 1 8 -0.542094
0 1 1 9 52.721800
0 1 1 10 -511.131000
0 1 1 11 123.146000
0 1 1 12 220.631000
0 1 1 13 -313.888000
0 1 1 14 -261.436000
0 1 1 15 -215.965000
0 1 2 2 -1905.690000
0 1 2 3 -1978.700000
0 1 2 4 -371.977000
0 1 2 5 356.952000
0 1 2 6 197.091000
0 1 2 7 649.572000
0 1 2 8 320.572000
0 1 2 9 34.416300
0 1 2 10 -607.743000
0 1 2 11 -184.133000
0 1 2 12 287.061000
0 1 2 13 -143.625000
0 1 2 14 -380.724000
0 1 2 15 -511.317000
0 1 3 3 -5272.710000
0 1 3 4 -1301.080000
0 1 3 5 972.481000
0 1 3 6 -122.871000
0 1 3 7 1314.900000
0 1 3 8 419.334000
0 1 3 9 591.544000
0 1 3 10 -1006.580000
0 1 3 11 -76.886500
0 1 3 12 981.744000
0 1 3 13 -789.682000
0 1 3 14 -1132.020000
0 1 3 15 -599.105000
0 1 4 4 -5360.210000
0 1 4 5 3837.370000
0 1 4 6 -909.119000
0 1 4 7 -1288.190000
0 1 4 8 -340.171000
0 1 4 9 -679.993000
0 1 4 10 945.123000
0 1 4 11 15.657000
0 1 4 12 -1079.880000
0 1 4 13 894.127000
0 1 4 14 1184.400000
0 1 4 15 491.062000
0 1 5 5 -3163.090000
0 1 5 6 232.856000
0 1 5 7 897.657000
0 1 5 8 386.008000
0 1 5 9 502.420000
0 1 5 10 -684.718000
0 1 5 11 -154.980000
0 1 5 12 823.474000
0 1 5 13 -562.550000
0 1 5 14 -901.686000
0 1 5 15 -446.929000
0 1 6 6 -931.188000
0 1 6 7 -70.832900
0 1 6 8 141.399000
0 1 6 9 -189.140000
0 1 6 10 -28.649500
0 1 6 11 -176.814000
0 1 6 12 -156.530000
0 1 6 13 244.338000
0 1 6 14 140.244000
0 1 6 15 -170.949000
0 1 7 7 -5881.110000
0 1 7 8 -1544.520000
0 1 7 9 -1687.690000
0 1 7 10 -1209.950000
0 1 7 11 -42.268400
0 1 7 12 885.423000
0 1 7 13 -804.564000
0 1 7 14 -1084.230000
0 1 7 15 -743.519000
0 1 8 8 -1312.250000
0 1 8 9 -518.682000
0 1 8 10 -344.747000
0 1 8 11 -227.859000
0 1 8 12 292.344000
0 1 8 13 -95.335900
0 1 8 14 -369.955000
0 1 8 15 -361.967000
0 1 9 9 -1606.510000
0 1 9 10 -249.656000
0 1 9 11 10.997200
0 1 9 12 498.317000
0 1 9 13 -419.514000
0 1 9 14 -554.740000
0 1 9 15 -95.800700
0 1 10 10 -4451.720000
0 1 10 11 -310.211000
0 1 10 12 2865.030000
0 1 10 13 644.965000
0 1 10 14 920.046000
0 1 10 15 750.503000
0 1 11 11 -873.942000
0 1 11 12 236.435000
0 1 11 13 -103.088000
0 1 11 14 102.353000
0 1 11 15 210.461000
0 1 12 12 -3408.680000
0 1 12 13 -699.275000
0 1 12 14 -1005.080000
0 1 12 15 -441.206000
0 1 13 13 -2572.490000
0 1 13 14 -2920.980000
0 1 13 15 -907.863000
0 1 14 14 -4223.410000
0 1 14 15 -2013.800000
0 1 15 15 -2249.970000
1 1 1 1 1
2 1 1 2 1
3 1 1 3 1
4 1 2 2 1
5 1 2 3 1
6 1 3 3 1
7 1 4 4 1
8 1 4 5 1
9 1 4 6 1
10 1 5 5 1
11 1 5 6 1
12 1 6 6 1
13 1 7 7 1
14 1 7 8 1
15 1 7 9 1
16 1 8 8 1
17 1 8 9 1
18 1 9 9 1
19 1 10 10 1
20 1 10 11 1
21 1 10 12 1
22 1 11 11 1
23 1 11 12 1
24 1 12 12 1
25 1 13 13 1
26 1 13 14 1
27 1 13 15 1
28 1 14 14 1
29 1 14 15 1
30 1 15 15 1
