examples/data/sdpa-problem.out
data   is ../examples/data/sdpa-problem.dat-s  : sparse
"GRET-SDP: mDim=d*(d+1)/2*M, nBlock = M, {-d*M,...,-d*M}"
Schur computation : DENSE 
   mu      thetaP  thetaD  objP      objD      alphaP  alphaD  beta 
 0 1.0e+04 1.0e+00 1.0e+00 -0.00e+00 -5.48e+06 1.0e+00 1.1e-03 9.26e+05
 1 4.8e+09 0.0e+00 1.0e+00 +8.33e+08 -2.74e+09 8.6e-01 8.6e-01 2.00e-01
 2 1.2e+09 0.0e+00 1.4e-01 +9.66e+08 -7.76e+09 9.0e-01 9.0e-01 2.00e-01
 3 3.0e+08 5.4e-16 1.4e-02 +1.11e+09 -2.78e+09 2.7e+00 1.0e+00 2.00e-01
 4 3.6e+07 8.3e-13 1.0e-02 +1.12e+08 -5.44e+08 2.2e+00 1.0e+00 2.00e-01
 5 4.3e+06 9.4e-13 1.0e-02 +1.14e+07 -6.56e+07 2.5e+00 1.0e+00 2.00e-01
 6 5.4e+05 9.2e-13 1.0e-02 +1.92e+06 -7.72e+06 1.5e+00 1.0e+00 2.00e-01
 7 7.7e+04 9.2e-13 1.0e-02 +4.09e+05 -9.86e+05 1.0e+00 1.0e+00 2.00e-01
 8 1.5e+04 9.2e-13 1.0e-02 +1.12e+05 -1.60e+05 9.2e-01 1.0e+00 2.00e-01
 9 3.5e+03 9.2e-13 1.0e-02 +2.19e+04 -4.03e+04 9.2e-01 1.0e+00 2.00e-01
10 7.9e+02 9.2e-13 1.0e-02 +3.12e+03 -1.10e+04 1.0e+00 1.0e+00 2.00e-01
11 1.5e+02 9.2e-13 1.0e-02 +4.28e+02 -2.28e+03 1.1e+00 1.0e+00 2.00e-01
12 2.9e+01 9.2e-13 1.0e-02 +6.79e+01 -4.51e+02 1.2e+00 1.0e+00 2.00e-01
13 5.3e+00 9.2e-13 1.0e-02 +8.69e+00 -8.64e+01 1.3e+00 1.0e+00 2.00e-01
14 9.7e-01 9.2e-13 1.0e-02 +1.57e+00 -1.58e+01 1.3e+00 1.0e+00 2.00e-01
15 1.8e-01 9.2e-13 1.0e-02 +2.92e-01 -2.90e+00 1.2e+00 1.0e+00 2.00e-01
16 3.4e-02 9.2e-13 1.0e-02 +7.24e-02 -5.32e-01 1.2e+00 1.0e+00 2.00e-01
17 6.3e-03 9.2e-13 1.0e-02 +1.20e-02 -1.01e-01 1.2e+00 1.0e+00 2.00e-01
18 1.2e-03 9.2e-13 1.0e-02 +2.37e-03 -1.88e-02 1.2e+00 1.0e+00 2.00e-01
19 2.2e-04 9.2e-13 1.0e-02 +3.77e-04 -3.53e-03 1.2e+00 1.0e+00 2.00e-01
20 4.1e-05 9.2e-13 1.0e-02 +7.72e-05 -6.55e-04 1.2e+00 1.0e+00 2.00e-01
21 7.5e-06 9.2e-13 1.0e-02 +9.98e-06 -1.26e-04 1.2e+00 1.0e+00 2.00e-01
22 1.4e-06 9.2e-13 1.0e-02 -6.85e-07 -2.62e-05 1.2e+00 1.0e+00 2.00e-01
23 2.6e-07 9.2e-13 1.0e-02 -3.10e-06 -7.83e-06 9.8e-07 9.8e-07 2.00e-01
23 2.6e-07 9.2e-13 1.0e-02 -3.10e-06 -7.83e-06 9.8e-07 9.8e-07 2.00e-01

phase.value  = pFEAS     
   Iteration = 23
          mu = +2.6228126949313770e-07
relative gap = +4.7308439319141746e-06
        gap  = +4.7308439319141746e-06
     digits  = +6.2556997664079808e-02
objValPrimal = -3.0983884131881807e-06
objValDual   = -7.8292323451023549e-06
p.feas.error = +6.1968421505298465e-09
d.feas.error = +1.0000000000000000e+00
total time   = 0.029317
** Parameters **
maxIteration = 100
epsilonStar  = +9.9999999999999995e-08
lambdaStar   = +1.0000000000000000e+02
omegaStar    = +2.0000000000000000e+00
lowerBound   = -1.0000000000000000e+05
upperBound   = +1.0000000000000000e+05
betaStar     = +1.0000000000000001e-01
betaBar      = +2.0000000000000001e-01
gammaStar    = +9.0000000000000002e-01
epsilonDash  = +9.9999999999999995e-08
xPrint       = %+8.3e 
XPrint       = %+8.3e 
YPrint       = %+8.3e 
infPrint     = %+10.16e 

                         Time(sec)  Ratio(% : MainLoop) 
 Predictor time  =       0.022283,  80.140263
 Corrector time  =       0.000151,  0.543068
 Make bMat time  =       0.021903,  78.773602
 Make bDia time  =       0.000000,  0.000000
 Make bF1  time  =       0.000000,  0.000000
 Make bF2  time  =       0.000000,  0.000000
 Make bF3  time  =       0.000094,  0.338069
 Make bPRE time  =       0.000006,  0.021579
 Make rMat time  =       0.000037,  0.133070
 Make gVec Mul   =       0.000027,  0.097105
 Make gVec time  =       0.000042,  0.151052
 Cholesky bMat   =       0.000211,  0.758856
 Ste Pre time    =       0.000003,  0.010789
 Ste Cor time    =       0.001493,  5.369538
 solve           =       0.000060,  0.215789
 sumDz           =       0.000037,  0.133070
 makedX          =       0.000089,  0.320086
 symmetriseDx    =       0.000034,  0.122280
 makedXdZ        =       0.000164,  0.589822
 xMatTime        =       0.000111,  0.399209
 zMatTime        =       0.000089,  0.320086
 invzMatTime     =       0.000000,  0.000000
 xMatzMatTime    =       0.000000,  0.000000
 EigxMatTime     =       0.000796,  2.862794
 EigzMatTime     =       0.000689,  2.477972
 EigxMatzMatTime =       0.000000,  0.000000
 updateRes       =       0.000041,  0.147455
 EigTime         =       0.001485,  5.340766
 sub_total_bMat  =       0.005902,  21.226398
 Main Loop       =       0.027805,  100.000000
 File Check      =       0.000000,  0.000000
 File Change     =       0.000005,  0.017982
 File Read       =       0.001507,  5.419889
 Total           =       0.029317,  105.437871

xVec = 
{-1.616e-06,-4.418e-08,+4.925e-07,+2.444e-07,+5.969e-07,+6.283e-08,-7.336e-07,+2.229e-07,-6.669e-07,-2.713e-07,+1.804e-07,-4.984e-07,+1.675e-07,-9.583e-07,-2.584e-07,-1.001e-06,+4.173e-07,+5.477e-07,-2.985e-99,-0.000e+00,-0.000e+00,-2.985e-99,-0.000e+00,-2.985e-99,-2.985e-99,-0.000e+00,-0.000e+00,-2.985e-99,-0.000e+00,-2.985e-99,-2.985e-99,-0.000e+00,-0.000e+00,-2.985e-99,-0.000e+00,-2.985e-99}
xMat = 
{
{ {+1.107e+03,-9.811e+02,+3.350e+02,+1.448e+02,+2.300e-04,-2.815e+02,-1.903e+02,+2.146e+02,-5.912e+01,-2.415e+02,-1.290e+02,-1.050e+02,-7.332e+00,-2.450e+02,-2.155e+02,-2.194e+02,+1.852e+02,+2.310e+01 },
  {-9.811e+02,+6.394e+03,-1.810e+03,-1.238e+03,-7.341e+01,+5.606e+02,+1.288e+03,-1.554e+02,+3.650e+02,+3.951e+02,+1.156e+03,+4.811e+02,+5.825e+02,+1.300e+03,+2.472e+02,+9.456e+02,-5.150e+02,+6.348e+02 },
  {+3.350e+02,-1.810e+03,+1.725e+03,+4.310e+02,-2.175e+02,-2.006e+02,-5.017e+02,+6.628e+01,+9.048e+01,-1.922e+02,-4.603e+02,+5.955e+01,-3.257e+02,-2.945e+02,-2.063e+02,-4.764e+02,+9.987e+00,-1.469e+02 },
  {+1.448e+02,-1.238e+03,+4.310e+02,+6.039e+03,-8.003e+01,-2.476e+03,+1.302e+03,-1.335e+02,+2.853e+02,+3.858e+02,+1.207e+03,+3.928e+02,+6.374e+02,+1.122e+03,+2.548e+02,+9.696e+02,-4.093e+02,+6.301e+02 },
  {+2.300e-04,-7.341e+01,-2.175e+02,-8.003e+01,+1.119e+03,+7.592e+01,-6.530e+01,+1.880e+01,+2.073e+02,-6.923e+01,-7.463e+01,+2.107e+02,-1.482e+02,+9.069e+01,-1.325e+02,-1.623e+02,-1.434e+02,+6.386e+01 },
  {-2.815e+02,+5.606e+02,-2.006e+02,-2.476e+03,+7.592e+01,+2.138e+03,-5.994e+02,+2.651e+02,-1.378e+02,-3.752e+02,-4.990e+02,-2.110e+02,-1.963e+02,-5.617e+02,-3.107e+02,-5.166e+02,+2.987e+02,-1.425e+02 },
  {-1.903e+02,+1.288e+03,-5.017e+02,+1.302e+03,-6.530e+01,-5.994e+02,+6.813e+03,-9.032e+02,+1.222e+03,-4.757e+02,-1.326e+03,-3.820e+02,-6.890e+02,-1.188e+03,-3.318e+02,-1.058e+03,+3.990e+02,-5.984e+02 },
  {+2.146e+02,-1.554e+02,+6.628e+01,-1.335e+02,+1.880e+01,+2.651e+02,-9.032e+02,+1.053e+03,-1.771e+02,+2.447e+02,+1.217e+02,+7.267e+01,+2.911e+00,+1.954e+02,+2.092e+02,+2.025e+02,-1.560e+02,-4.473e+01 },
  {-5.912e+01,+3.650e+02,+9.048e+01,+2.853e+02,+2.073e+02,-1.378e+02,+1.222e+03,-1.771e+02,+1.335e+03,-4.903e+01,-2.225e+02,-3.026e+02,-6.105e+00,-3.768e+02,+3.598e+01,-7.964e+01,+2.345e+02,-1.740e+02 },
  {-2.415e+02,+3.951e+02,-1.922e+02,+3.858e+02,-6.923e+01,-3.752e+02,-4.757e+02,+2.447e+02,-4.903e+01,+1.660e+03,+1.894e+03,+5.865e+02,-1.500e+02,-4.018e+02,-2.803e+02,-4.396e+02,+2.110e+02,-7.055e+01 },
  {-1.290e+02,+1.156e+03,-4.603e+02,+1.207e+03,-7.463e+01,-4.990e+02,-1.326e+03,+1.217e+02,-2.225e+02,+1.894e+03,+5.838e+03,+1.622e+03,-6.385e+02,-1.052e+03,-2.527e+02,-9.697e+02,+3.471e+02,-5.831e+02 },
  {-1.050e+02,+4.811e+02,+5.955e+01,+3.928e+02,+2.107e+02,-2.110e+02,-3.820e+02,+7.267e+01,-3.026e+02,+5.865e+02,+1.622e+03,+1.668e+03,-5.021e+01,-4.972e+02,-1.302e+01,-1.879e+02,+2.971e+02,-2.262e+02 },
  {-7.332e+00,+5.825e+02,-3.257e+02,+6.374e+02,-1.482e+02,-1.963e+02,-6.890e+02,+2.911e+00,-6.105e+00,-1.500e+02,-6.385e+02,-5.021e+01,+2.242e+03,+2.396e+03,+7.155e+02,-5.694e+02,+6.889e+01,-3.311e+02 },
  {-2.450e+02,+1.300e+03,-2.945e+02,+1.122e+03,+9.069e+01,-5.617e+02,-1.188e+03,+1.954e+02,-3.768e+02,-4.018e+02,-1.052e+03,-4.972e+02,+2.396e+03,+5.649e+03,+1.221e+03,-8.620e+02,+5.060e+02,-5.710e+02 },
  {-2.155e+02,+2.472e+02,-2.063e+02,+2.548e+02,-1.325e+02,-3.107e+02,-3.318e+02,+2.092e+02,+3.598e+01,-2.803e+02,-2.527e+02,-1.302e+01,+7.155e+02,+1.221e+03,+1.362e+03,-3.658e+02,+1.119e+02,+7.682e+00 },
  {-2.194e+02,+9.456e+02,-4.764e+02,+9.696e+02,-1.623e+02,-5.166e+02,-1.058e+03,+2.025e+02,-7.964e+01,-4.396e+02,-9.697e+02,-1.879e+02,-5.694e+02,-8.620e+02,-3.658e+02,+4.744e+03,-1.610e+03,+2.143e+03 },
  {+1.852e+02,-5.150e+02,+9.987e+00,-4.093e+02,-1.434e+02,+2.987e+02,+3.990e+02,-1.560e+02,+2.345e+02,+2.110e+02,+3.471e+02,+2.971e+02,+6.889e+01,+5.060e+02,+1.119e+02,-1.610e+03,+1.740e+03,-1.039e+03 },
  {+2.310e+01,+6.348e+02,-1.469e+02,+6.301e+02,+6.386e+01,-1.425e+02,-5.984e+02,-4.473e+01,-1.740e+02,-7.055e+01,-5.831e+02,-2.262e+02,-3.311e+02,-5.710e+02,+7.682e+00,+2.143e+03,-1.039e+03,+2.160e+03 }   }
}
yMat = 
{
{ {+1.000e+00,-2.248e-17,-2.773e-18,+2.718e-01,-1.160e-02,+9.623e-01,+3.059e-03,-9.977e-01,+6.796e-02,+9.497e-01,-2.446e-01,+1.956e-01,-5.037e-01,+2.338e-01,+8.316e-01,+3.431e-01,-6.154e-01,-7.096e-01 },
  {-2.248e-17,+1.000e+00,-8.692e-19,+9.106e-01,+3.268e-01,-2.532e-01,-8.503e-01,-3.837e-02,-5.249e-01,-8.899e-02,-8.096e-01,-5.802e-01,-2.901e-01,-9.526e-01,+9.204e-02,-5.102e-01,+5.122e-01,-6.909e-01 },
  {-2.773e-18,-8.692e-19,+1.000e+00,-3.115e-01,+9.450e-01,+9.937e-02,+5.263e-01,-5.618e-02,-8.484e-01,+3.003e-01,+5.336e-01,-7.906e-01,+8.137e-01,-1.949e-01,+5.476e-01,+7.887e-01,+5.991e-01,-1.382e-01 },
  {+2.718e-01,+9.106e-01,-3.115e-01,+1.000e+00,+6.397e-18,+1.305e-17,-9.373e-01,-2.886e-01,-1.952e-01,+8.352e-02,-9.699e-01,-2.289e-01,-6.545e-01,-7.431e-01,+1.392e-01,-6.170e-01,+1.126e-01,-7.789e-01 },
  {-1.160e-02,+3.268e-01,+9.450e-01,+6.397e-18,+1.000e+00,-1.389e-17,+2.195e-01,-5.405e-02,-9.741e-01,+2.437e-01,+2.426e-01,-9.390e-01,+6.800e-01,-4.982e-01,+5.380e-01,+5.746e-01,+7.407e-01,-3.481e-01 },
  {+9.623e-01,-2.532e-01,+9.937e-02,+1.305e-17,-1.389e-17,+1.000e+00,+2.705e-01,-9.559e-01,+1.140e-01,+9.662e-01,+2.265e-02,+2.566e-01,-3.304e-01,+4.468e-01,+8.314e-01,+5.377e-01,-6.623e-01,-5.217e-01 },
  {+3.059e-03,-8.503e-01,+5.263e-01,-9.373e-01,+2.195e-01,+2.705e-01,+1.000e+00,+2.891e-18,-2.416e-18,+2.366e-01,+9.685e-01,+7.782e-02,+6.734e-01,+7.080e-01,+2.125e-01,+8.499e-01,-1.221e-01,+5.125e-01 },
  {-9.977e-01,-3.837e-02,-5.618e-02,-2.886e-01,-5.405e-02,-9.559e-01,+2.891e-18,+1.000e+00,-1.487e-17,-9.609e-01,+2.451e-01,-1.285e-01,+4.680e-01,-1.857e-01,-8.640e-01,-3.671e-01,+5.606e-01,+7.423e-01 },
  {+6.796e-02,-5.249e-01,-8.484e-01,-1.952e-01,-9.741e-01,+1.140e-01,-2.416e-18,-1.487e-17,+1.000e+00,-1.435e-01,-4.437e-02,+9.887e-01,-5.723e-01,+6.813e-01,-4.564e-01,-3.780e-01,-8.190e-01,+4.317e-01 },
  {+9.497e-01,-8.899e-02,+3.003e-01,+8.352e-02,+2.437e-01,+9.662e-01,+2.366e-01,-9.609e-01,-1.435e-01,+1.000e+00,+1.427e-09,-2.597e-09,-2.082e-01,+2.482e-01,+9.461e-01,+6.081e-01,-4.501e-01,-6.540e-01 },
  {-2.446e-01,-8.096e-01,+5.336e-01,-9.699e-01,+2.426e-01,+2.265e-02,+9.685e-01,+2.451e-01,-4.437e-02,+1.427e-09,+1.000e+00,+9.165e-10,+7.923e-01,+6.100e-01,+1.430e-02,+7.500e-01,+5.551e-02,+6.592e-01 },
  {+1.956e-01,-5.802e-01,-7.906e-01,-2.289e-01,-9.390e-01,+2.566e-01,+7.782e-02,-1.285e-01,+9.887e-01,-2.597e-09,+9.165e-10,+1.000e+00,-5.735e-01,+7.525e-01,-3.237e-01,-2.604e-01,-8.913e-01,+3.713e-01 },
  {-5.037e-01,-2.901e-01,+8.137e-01,-6.545e-01,+6.800e-01,-3.304e-01,+6.734e-01,+4.680e-01,-5.723e-01,-2.082e-01,+7.923e-01,-5.735e-01,+1.000e+00,+4.223e-10,+2.186e-09,+6.169e-01,+6.488e-01,+4.455e-01 },
  {+2.338e-01,-9.526e-01,-1.949e-01,-7.431e-01,-4.982e-01,+4.468e-01,+7.080e-01,-1.857e-01,+6.813e-01,+2.482e-01,+6.100e-01,+7.525e-01,+4.223e-10,+1.000e+00,-4.142e-10,+4.125e-01,-7.486e-01,+5.191e-01 },
  {+8.316e-01,+9.204e-02,+5.476e-01,+1.392e-01,+5.380e-01,+8.314e-01,+2.125e-01,-8.640e-01,-4.564e-01,+9.461e-01,+1.430e-02,-3.237e-01,+2.186e-09,-4.142e-10,+1.000e+00,+6.703e-01,-1.365e-01,-7.294e-01 },
  {+3.431e-01,-5.102e-01,+7.887e-01,-6.170e-01,+5.746e-01,+5.377e-01,+8.499e-01,-3.671e-01,-3.780e-01,+6.081e-01,+7.500e-01,-2.604e-01,+6.169e-01,+4.125e-01,+6.703e-01,+1.000e+00,+7.657e-10,+2.054e-11 },
  {-6.154e-01,+5.122e-01,+5.991e-01,+1.126e-01,+7.407e-01,-6.623e-01,-1.221e-01,+5.606e-01,-8.190e-01,-4.501e-01,+5.551e-02,-8.913e-01,+6.488e-01,-7.486e-01,-1.365e-01,+7.657e-10,+1.000e+00,-2.216e-09 },
  {-7.096e-01,-6.909e-01,-1.382e-01,-7.789e-01,-3.481e-01,-5.217e-01,+5.125e-01,+7.423e-01,+4.317e-01,-6.540e-01,+6.592e-01,+3.713e-01,+4.455e-01,+5.191e-01,-7.294e-01,+5.987e-12,-2.216e-09,+1.000e+00 }   }
}
    main loop time = 0.027805
        total time = 0.029317
  file  check time = 0.000000
  file change time = 0.000005
  file   read time = 0.001507
